notes/week7-examples/Linear-Optimization-AMPL/IMM-9-FS2014-Hot-Warm-asphalt.txt

for {1..1} {
solve;
display time;
}

